% Instancia 7: Insatisfactible

% Formato de entrada problema Planta de Energía:

% Parámetros:
% Nc:       Número de centrales eléctricas. Entero >= 0.
% S:        Número de clientes. Entero >= 0.
% n:        Número de días para satisfacer demanda diaria de clientes. Entero >= 0.
% CaP(i):   Capacidad de producción diaria en megawatts (MW) por central eléctrica con i={0, .., Nc}. Flotante >= 0.
% CoP(i):   Costo de producción de un MW por central eléctrica con i={0, .., Nc}. Flotante >= 0.
% d(s,i):   Demanda diaria en MW de un cliente s={0, .., S} para un día i={0, .., n}. Flotantes >= 0.

Nc = 3;
S = 3;
n = 6;
CaP = [130.0, 145.0, 180.0];
CoP = [500.0, 450.0, 300.0];
d = array2d (1..S, 1..n,
     [ % Supera la capacidad diaría de todas las centrales en día 4
      153.0, 88.0, 90.0, 119.0, 133.0, 102.0, % Cliente1 [Día1, Día2, Día3, Día4, Día5, Día6]
      112.0, 167.0, 82.0, 133.0, 109.0, 88.0, % Cliente2 ..
      90.0, 109.0, 190.0, 238.0, 99.0, 302.0  % Cliente3 ..
     ]
    );
